p cnf 479 2001
1 2 3 4 5 6 0
-1 295 0
-2 296 0
-295 296 0
-295 -2 0
-3 297 0
-296 297 0
-296 -3 0
-4 298 0
-297 298 0
-297 -4 0
-5 299 0
-298 299 0
-298 -5 0
-299 -6 0
-1 43 0
-1 7 0
-2 44 0
-2 8 0
-3 45 0
-3 9 0
-4 46 0
-4 10 0
-5 47 0
-5 11 0
-6 48 0
-6 12 0
7 8 9 10 11 12 0
-7 300 0
-8 301 0
-300 301 0
-300 -8 0
-9 302 0
-301 302 0
-301 -9 0
-10 303 0
-302 303 0
-302 -10 0
-11 304 0
-303 304 0
-303 -11 0
-304 -12 0
-7 1 13 0
-7 1 49 0
-7 13 49 0
-8 2 14 0
-8 2 50 0
-8 14 50 0
-9 3 15 0
-9 3 51 0
-9 15 51 0
-10 4 16 0
-10 4 52 0
-10 16 52 0
-11 5 17 0
-11 5 53 0
-11 17 53 0
-12 6 18 0
-12 6 54 0
-12 18 54 0
-7 -1 -13 -49 0
-8 -2 -14 -50 0
-9 -3 -15 -51 0
-10 -4 -16 -52 0
-11 -5 -17 -53 0
-12 -6 -18 -54 0
13 14 15 16 17 18 0
-13 305 0
-14 306 0
-305 306 0
-305 -14 0
-15 307 0
-306 307 0
-306 -15 0
-16 308 0
-307 308 0
-307 -16 0
-17 309 0
-308 309 0
-308 -17 0
-309 -18 0
-13 7 19 0
-13 7 55 0
-13 19 55 0
-14 8 20 0
-14 8 56 0
-14 20 56 0
-15 9 21 0
-15 9 57 0
-15 21 57 0
-16 10 22 0
-16 10 58 0
-16 22 58 0
-17 11 23 0
-17 11 59 0
-17 23 59 0
-18 12 24 0
-18 12 60 0
-18 24 60 0
-13 -7 -19 -55 0
-14 -8 -20 -56 0
-15 -9 -21 -57 0
-16 -10 -22 -58 0
-17 -11 -23 -59 0
-18 -12 -24 -60 0
19 20 21 22 23 24 0
-19 310 0
-20 311 0
-310 311 0
-310 -20 0
-21 312 0
-311 312 0
-311 -21 0
-22 313 0
-312 313 0
-312 -22 0
-23 314 0
-313 314 0
-313 -23 0
-314 -24 0
-19 13 25 0
-19 13 61 0
-19 25 61 0
-20 14 26 0
-20 14 62 0
-20 26 62 0
-21 15 27 0
-21 15 63 0
-21 27 63 0
-22 16 28 0
-22 16 64 0
-22 28 64 0
-23 17 29 0
-23 17 65 0
-23 29 65 0
-24 18 30 0
-24 18 66 0
-24 30 66 0
-19 -13 -25 -61 0
-20 -14 -26 -62 0
-21 -15 -27 -63 0
-22 -16 -28 -64 0
-23 -17 -29 -65 0
-24 -18 -30 -66 0
-25 0
-26 0
-27 0
-28 0
-30 0
29 0
23 35 71 0
-23 -35 0
-23 -71 0
-35 -71 0
-31 0
-32 0
-34 0
-35 0
-36 0
33 0
27 39 75 0
-27 -39 0
-27 -75 0
-39 -75 0
-37 0
-39 0
-40 0
-41 0
-42 0
38 0
80 32 0
-80 -32 0
43 44 45 46 47 48 0
-43 315 0
-44 316 0
-315 316 0
-315 -44 0
-45 317 0
-316 317 0
-316 -45 0
-46 318 0
-317 318 0
-317 -46 0
-47 319 0
-318 319 0
-318 -47 0
-319 -48 0
-43 85 49 0
-43 85 1 0
-43 49 1 0
-44 86 50 0
-44 86 2 0
-44 50 2 0
-45 87 51 0
-45 87 3 0
-45 51 3 0
-46 88 52 0
-46 88 4 0
-46 52 4 0
-47 89 53 0
-47 89 5 0
-47 53 5 0
-48 90 54 0
-48 90 6 0
-48 54 6 0
-43 -85 -49 -1 0
-44 -86 -50 -2 0
-45 -87 -51 -3 0
-46 -88 -52 -4 0
-47 -89 -53 -5 0
-48 -90 -54 -6 0
49 50 51 52 53 54 0
-49 320 0
-50 321 0
-320 321 0
-320 -50 0
-51 322 0
-321 322 0
-321 -51 0
-52 323 0
-322 323 0
-322 -52 0
-53 324 0
-323 324 0
-323 -53 0
-324 -54 0
-49 91 55 7 0
-49 91 55 43 0
-49 91 7 43 0
-49 55 7 43 0
-50 92 56 8 0
-50 92 56 44 0
-50 92 8 44 0
-50 56 8 44 0
-51 93 57 9 0
-51 93 57 45 0
-51 93 9 45 0
-51 57 9 45 0
-52 94 58 10 0
-52 94 58 46 0
-52 94 10 46 0
-52 58 10 46 0
-53 95 59 11 0
-53 95 59 47 0
-53 95 11 47 0
-53 59 11 47 0
-54 96 60 12 0
-54 96 60 48 0
-54 96 12 48 0
-54 60 12 48 0
-49 -91 -55 -7 0
-49 -91 -55 -43 0
-49 -91 -7 -43 0
-49 -55 -7 -43 0
-50 -92 -56 -8 0
-50 -92 -56 -44 0
-50 -92 -8 -44 0
-50 -56 -8 -44 0
-51 -93 -57 -9 0
-51 -93 -57 -45 0
-51 -93 -9 -45 0
-51 -57 -9 -45 0
-52 -94 -58 -10 0
-52 -94 -58 -46 0
-52 -94 -10 -46 0
-52 -58 -10 -46 0
-53 -95 -59 -11 0
-53 -95 -59 -47 0
-53 -95 -11 -47 0
-53 -59 -11 -47 0
-54 -96 -60 -12 0
-54 -96 -60 -48 0
-54 -96 -12 -48 0
-54 -60 -12 -48 0
55 56 57 58 59 60 0
-55 325 0
-56 326 0
-325 326 0
-325 -56 0
-57 327 0
-326 327 0
-326 -57 0
-58 328 0
-327 328 0
-327 -58 0
-59 329 0
-328 329 0
-328 -59 0
-329 -60 0
-55 97 61 13 0
-55 97 61 49 0
-55 97 13 49 0
-55 61 13 49 0
-56 98 62 14 0
-56 98 62 50 0
-56 98 14 50 0
-56 62 14 50 0
-57 99 63 15 0
-57 99 63 51 0
-57 99 15 51 0
-57 63 15 51 0
-58 100 64 16 0
-58 100 64 52 0
-58 100 16 52 0
-58 64 16 52 0
-59 101 65 17 0
-59 101 65 53 0
-59 101 17 53 0
-59 65 17 53 0
-60 102 66 18 0
-60 102 66 54 0
-60 102 18 54 0
-60 66 18 54 0
-55 -97 -61 -13 0
-55 -97 -61 -49 0
-55 -97 -13 -49 0
-55 -61 -13 -49 0
-56 -98 -62 -14 0
-56 -98 -62 -50 0
-56 -98 -14 -50 0
-56 -62 -14 -50 0
-57 -99 -63 -15 0
-57 -99 -63 -51 0
-57 -99 -15 -51 0
-57 -63 -15 -51 0
-58 -100 -64 -16 0
-58 -100 -64 -52 0
-58 -100 -16 -52 0
-58 -64 -16 -52 0
-59 -101 -65 -17 0
-59 -101 -65 -53 0
-59 -101 -17 -53 0
-59 -65 -17 -53 0
-60 -102 -66 -18 0
-60 -102 -66 -54 0
-60 -102 -18 -54 0
-60 -66 -18 -54 0
61 62 63 64 65 66 0
-61 330 0
-62 331 0
-330 331 0
-330 -62 0
-63 332 0
-331 332 0
-331 -63 0
-64 333 0
-332 333 0
-332 -64 0
-65 334 0
-333 334 0
-333 -65 0
-334 -66 0
-61 103 67 19 0
-61 103 67 55 0
-61 103 19 55 0
-61 67 19 55 0
-62 104 68 20 0
-62 104 68 56 0
-62 104 20 56 0
-62 68 20 56 0
-63 105 69 21 0
-63 105 69 57 0
-63 105 21 57 0
-63 69 21 57 0
-64 106 70 22 0
-64 106 70 58 0
-64 106 22 58 0
-64 70 22 58 0
-65 107 71 23 0
-65 107 71 59 0
-65 107 23 59 0
-65 71 23 59 0
-66 108 72 24 0
-66 108 72 60 0
-66 108 24 60 0
-66 72 24 60 0
-61 -103 -67 -19 0
-61 -103 -67 -55 0
-61 -103 -19 -55 0
-61 -67 -19 -55 0
-62 -104 -68 -20 0
-62 -104 -68 -56 0
-62 -104 -20 -56 0
-62 -68 -20 -56 0
-63 -105 -69 -21 0
-63 -105 -69 -57 0
-63 -105 -21 -57 0
-63 -69 -21 -57 0
-64 -106 -70 -22 0
-64 -106 -70 -58 0
-64 -106 -22 -58 0
-64 -70 -22 -58 0
-65 -107 -71 -23 0
-65 -107 -71 -59 0
-65 -107 -23 -59 0
-65 -71 -23 -59 0
-66 -108 -72 -24 0
-66 -108 -72 -60 0
-66 -108 -24 -60 0
-66 -72 -24 -60 0
67 68 69 70 71 72 0
-67 335 0
-68 336 0
-335 336 0
-335 -68 0
-69 337 0
-336 337 0
-336 -69 0
-70 338 0
-337 338 0
-337 -70 0
-71 339 0
-338 339 0
-338 -71 0
-339 -72 0
-67 109 73 25 0
-67 109 73 61 0
-67 109 25 61 0
-67 73 25 61 0
-68 110 74 26 0
-68 110 74 62 0
-68 110 26 62 0
-68 74 26 62 0
-69 111 75 27 0
-69 111 75 63 0
-69 111 27 63 0
-69 75 27 63 0
-70 112 76 28 0
-70 112 76 64 0
-70 112 28 64 0
-70 76 28 64 0
-71 113 77 29 0
-71 113 77 65 0
-71 113 29 65 0
-71 77 29 65 0
-72 114 78 30 0
-72 114 78 66 0
-72 114 30 66 0
-72 78 30 66 0
-67 -109 -73 -25 0
-67 -109 -73 -61 0
-67 -109 -25 -61 0
-67 -73 -25 -61 0
-68 -110 -74 -26 0
-68 -110 -74 -62 0
-68 -110 -26 -62 0
-68 -74 -26 -62 0
-69 -111 -75 -27 0
-69 -111 -75 -63 0
-69 -111 -27 -63 0
-69 -75 -27 -63 0
-70 -112 -76 -28 0
-70 -112 -76 -64 0
-70 -112 -28 -64 0
-70 -76 -28 -64 0
-71 -113 -77 -29 0
-71 -113 -77 -65 0
-71 -113 -29 -65 0
-71 -77 -29 -65 0
-72 -114 -78 -30 0
-72 -114 -78 -66 0
-72 -114 -30 -66 0
-72 -78 -30 -66 0
73 74 75 76 77 78 0
-73 340 0
-74 341 0
-340 341 0
-340 -74 0
-75 342 0
-341 342 0
-341 -75 0
-76 343 0
-342 343 0
-342 -76 0
-77 344 0
-343 344 0
-343 -77 0
-344 -78 0
-73 115 79 31 0
-73 115 79 67 0
-73 115 31 67 0
-73 79 31 67 0
-74 116 80 32 0
-74 116 80 68 0
-74 116 32 68 0
-74 80 32 68 0
-75 117 81 33 0
-75 117 81 69 0
-75 117 33 69 0
-75 81 33 69 0
-76 118 82 34 0
-76 118 82 70 0
-76 118 34 70 0
-76 82 34 70 0
-77 119 83 35 0
-77 119 83 71 0
-77 119 35 71 0
-77 83 35 71 0
-78 120 84 36 0
-78 120 84 72 0
-78 120 36 72 0
-78 84 36 72 0
-73 -115 -79 -31 0
-73 -115 -79 -67 0
-73 -115 -31 -67 0
-73 -79 -31 -67 0
-74 -116 -80 -32 0
-74 -116 -80 -68 0
-74 -116 -32 -68 0
-74 -80 -32 -68 0
-75 -117 -81 -33 0
-75 -117 -81 -69 0
-75 -117 -33 -69 0
-75 -81 -33 -69 0
-76 -118 -82 -34 0
-76 -118 -82 -70 0
-76 -118 -34 -70 0
-76 -82 -34 -70 0
-77 -119 -83 -35 0
-77 -119 -83 -71 0
-77 -119 -35 -71 0
-77 -83 -35 -71 0
-78 -120 -84 -36 0
-78 -120 -84 -72 0
-78 -120 -36 -72 0
-78 -84 -36 -72 0
79 80 81 82 83 84 0
-79 345 0
-80 346 0
-345 346 0
-345 -80 0
-81 347 0
-346 347 0
-346 -81 0
-82 348 0
-347 348 0
-347 -82 0
-83 349 0
-348 349 0
-348 -83 0
-349 -84 0
-79 121 73 0
-79 121 37 0
-79 73 37 0
-80 122 74 0
-80 122 38 0
-80 74 38 0
-81 123 75 0
-81 123 39 0
-81 75 39 0
-82 124 76 0
-82 124 40 0
-82 76 40 0
-83 125 77 0
-83 125 41 0
-83 77 41 0
-84 126 78 0
-84 126 42 0
-84 78 42 0
-79 -121 -73 -37 0
-80 -122 -74 -38 0
-81 -123 -75 -39 0
-82 -124 -76 -40 0
-83 -125 -77 -41 0
-84 -126 -78 -42 0
85 86 87 88 89 90 0
-85 350 0
-86 351 0
-350 351 0
-350 -86 0
-87 352 0
-351 352 0
-351 -87 0
-88 353 0
-352 353 0
-352 -88 0
-89 354 0
-353 354 0
-353 -89 0
-354 -90 0
-85 127 91 0
-85 127 43 0
-85 91 43 0
-86 128 92 0
-86 128 44 0
-86 92 44 0
-87 129 93 0
-87 129 45 0
-87 93 45 0
-88 130 94 0
-88 130 46 0
-88 94 46 0
-89 131 95 0
-89 131 47 0
-89 95 47 0
-90 132 96 0
-90 132 48 0
-90 96 48 0
-85 -127 -91 -43 0
-86 -128 -92 -44 0
-87 -129 -93 -45 0
-88 -130 -94 -46 0
-89 -131 -95 -47 0
-90 -132 -96 -48 0
91 92 93 94 95 96 0
-91 355 0
-92 356 0
-355 356 0
-355 -92 0
-93 357 0
-356 357 0
-356 -93 0
-94 358 0
-357 358 0
-357 -94 0
-95 359 0
-358 359 0
-358 -95 0
-359 -96 0
-91 133 97 49 0
-91 133 97 85 0
-91 133 49 85 0
-91 97 49 85 0
-92 134 98 50 0
-92 134 98 86 0
-92 134 50 86 0
-92 98 50 86 0
-93 135 99 51 0
-93 135 99 87 0
-93 135 51 87 0
-93 99 51 87 0
-94 136 100 52 0
-94 136 100 88 0
-94 136 52 88 0
-94 100 52 88 0
-95 137 101 53 0
-95 137 101 89 0
-95 137 53 89 0
-95 101 53 89 0
-96 138 102 54 0
-96 138 102 90 0
-96 138 54 90 0
-96 102 54 90 0
-91 -133 -97 -49 0
-91 -133 -97 -85 0
-91 -133 -49 -85 0
-91 -97 -49 -85 0
-92 -134 -98 -50 0
-92 -134 -98 -86 0
-92 -134 -50 -86 0
-92 -98 -50 -86 0
-93 -135 -99 -51 0
-93 -135 -99 -87 0
-93 -135 -51 -87 0
-93 -99 -51 -87 0
-94 -136 -100 -52 0
-94 -136 -100 -88 0
-94 -136 -52 -88 0
-94 -100 -52 -88 0
-95 -137 -101 -53 0
-95 -137 -101 -89 0
-95 -137 -53 -89 0
-95 -101 -53 -89 0
-96 -138 -102 -54 0
-96 -138 -102 -90 0
-96 -138 -54 -90 0
-96 -102 -54 -90 0
-97 0
-98 0
-99 0
-101 0
-102 0
100 0
142 106 58 94 0
-142 -106 0
-142 -58 0
-142 -94 0
-106 -58 0
-106 -94 0
-58 -94 0
103 104 105 106 107 108 0
-103 360 0
-104 361 0
-360 361 0
-360 -104 0
-105 362 0
-361 362 0
-361 -105 0
-106 363 0
-362 363 0
-362 -106 0
-107 364 0
-363 364 0
-363 -107 0
-364 -108 0
-103 145 109 61 0
-103 145 109 97 0
-103 145 61 97 0
-103 109 61 97 0
-104 146 110 62 0
-104 146 110 98 0
-104 146 62 98 0
-104 110 62 98 0
-105 147 111 63 0
-105 147 111 99 0
-105 147 63 99 0
-105 111 63 99 0
-106 148 112 64 0
-106 148 112 100 0
-106 148 64 100 0
-106 112 64 100 0
-107 149 113 65 0
-107 149 113 101 0
-107 149 65 101 0
-107 113 65 101 0
-108 150 114 66 0
-108 150 114 102 0
-108 150 66 102 0
-108 114 66 102 0
-103 -145 -109 -61 0
-103 -145 -109 -97 0
-103 -145 -61 -97 0
-103 -109 -61 -97 0
-104 -146 -110 -62 0
-104 -146 -110 -98 0
-104 -146 -62 -98 0
-104 -110 -62 -98 0
-105 -147 -111 -63 0
-105 -147 -111 -99 0
-105 -147 -63 -99 0
-105 -111 -63 -99 0
-106 -148 -112 -64 0
-106 -148 -112 -100 0
-106 -148 -64 -100 0
-106 -112 -64 -100 0
-107 -149 -113 -65 0
-107 -149 -113 -101 0
-107 -149 -65 -101 0
-107 -113 -65 -101 0
-108 -150 -114 -66 0
-108 -150 -114 -102 0
-108 -150 -66 -102 0
-108 -114 -66 -102 0
109 110 111 112 113 114 0
-109 365 0
-110 366 0
-365 366 0
-365 -110 0
-111 367 0
-366 367 0
-366 -111 0
-112 368 0
-367 368 0
-367 -112 0
-113 369 0
-368 369 0
-368 -113 0
-369 -114 0
-109 151 115 67 0
-109 151 115 103 0
-109 151 67 103 0
-109 115 67 103 0
-110 152 116 68 0
-110 152 116 104 0
-110 152 68 104 0
-110 116 68 104 0
-111 153 117 69 0
-111 153 117 105 0
-111 153 69 105 0
-111 117 69 105 0
-112 154 118 70 0
-112 154 118 106 0
-112 154 70 106 0
-112 118 70 106 0
-113 155 119 71 0
-113 155 119 107 0
-113 155 71 107 0
-113 119 71 107 0
-114 156 120 72 0
-114 156 120 108 0
-114 156 72 108 0
-114 120 72 108 0
-109 -151 -115 -67 0
-109 -151 -115 -103 0
-109 -151 -67 -103 0
-109 -115 -67 -103 0
-110 -152 -116 -68 0
-110 -152 -116 -104 0
-110 -152 -68 -104 0
-110 -116 -68 -104 0
-111 -153 -117 -69 0
-111 -153 -117 -105 0
-111 -153 -69 -105 0
-111 -117 -69 -105 0
-112 -154 -118 -70 0
-112 -154 -118 -106 0
-112 -154 -70 -106 0
-112 -118 -70 -106 0
-113 -155 -119 -71 0
-113 -155 -119 -107 0
-113 -155 -71 -107 0
-113 -119 -71 -107 0
-114 -156 -120 -72 0
-114 -156 -120 -108 0
-114 -156 -72 -108 0
-114 -120 -72 -108 0
-115 0
-116 0
-117 0
-119 0
-120 0
118 0
160 124 76 112 0
-160 -124 0
-160 -76 0
-160 -112 0
-124 -76 0
-124 -112 0
-76 -112 0
121 122 123 124 125 126 0
-121 370 0
-122 371 0
-370 371 0
-370 -122 0
-123 372 0
-371 372 0
-371 -123 0
-124 373 0
-372 373 0
-372 -124 0
-125 374 0
-373 374 0
-373 -125 0
-374 -126 0
-121 163 115 0
-121 163 79 0
-121 115 79 0
-122 164 116 0
-122 164 80 0
-122 116 80 0
-123 165 117 0
-123 165 81 0
-123 117 81 0
-124 166 118 0
-124 166 82 0
-124 118 82 0
-125 167 119 0
-125 167 83 0
-125 119 83 0
-126 168 120 0
-126 168 84 0
-126 120 84 0
-121 -163 -115 -79 0
-122 -164 -116 -80 0
-123 -165 -117 -81 0
-124 -166 -118 -82 0
-125 -167 -119 -83 0
-126 -168 -120 -84 0
127 128 129 130 131 132 0
-127 375 0
-128 376 0
-375 376 0
-375 -128 0
-129 377 0
-376 377 0
-376 -129 0
-130 378 0
-377 378 0
-377 -130 0
-131 379 0
-378 379 0
-378 -131 0
-379 -132 0
-127 169 133 0
-127 169 85 0
-127 133 85 0
-128 170 134 0
-128 170 86 0
-128 134 86 0
-129 171 135 0
-129 171 87 0
-129 135 87 0
-130 172 136 0
-130 172 88 0
-130 136 88 0
-131 173 137 0
-131 173 89 0
-131 137 89 0
-132 174 138 0
-132 174 90 0
-132 138 90 0
-127 -169 -133 -85 0
-128 -170 -134 -86 0
-129 -171 -135 -87 0
-130 -172 -136 -88 0
-131 -173 -137 -89 0
-132 -174 -138 -90 0
-133 0
-134 0
-136 0
-137 0
-138 0
135 0
177 141 93 129 0
-177 -141 0
-177 -93 0
-177 -129 0
-141 -93 0
-141 -129 0
-93 -129 0
139 140 141 142 143 144 0
-139 380 0
-140 381 0
-380 381 0
-380 -140 0
-141 382 0
-381 382 0
-381 -141 0
-142 383 0
-382 383 0
-382 -142 0
-143 384 0
-383 384 0
-383 -143 0
-384 -144 0
-139 181 145 97 0
-139 181 145 133 0
-139 181 97 133 0
-139 145 97 133 0
-140 182 146 98 0
-140 182 146 134 0
-140 182 98 134 0
-140 146 98 134 0
-141 183 147 99 0
-141 183 147 135 0
-141 183 99 135 0
-141 147 99 135 0
-142 184 148 100 0
-142 184 148 136 0
-142 184 100 136 0
-142 148 100 136 0
-143 185 149 101 0
-143 185 149 137 0
-143 185 101 137 0
-143 149 101 137 0
-144 186 150 102 0
-144 186 150 138 0
-144 186 102 138 0
-144 150 102 138 0
-139 -181 -145 -97 0
-139 -181 -145 -133 0
-139 -181 -97 -133 0
-139 -145 -97 -133 0
-140 -182 -146 -98 0
-140 -182 -146 -134 0
-140 -182 -98 -134 0
-140 -146 -98 -134 0
-141 -183 -147 -99 0
-141 -183 -147 -135 0
-141 -183 -99 -135 0
-141 -147 -99 -135 0
-142 -184 -148 -100 0
-142 -184 -148 -136 0
-142 -184 -100 -136 0
-142 -148 -100 -136 0
-143 -185 -149 -101 0
-143 -185 -149 -137 0
-143 -185 -101 -137 0
-143 -149 -101 -137 0
-144 -186 -150 -102 0
-144 -186 -150 -138 0
-144 -186 -102 -138 0
-144 -150 -102 -138 0
145 146 147 148 149 150 0
-145 385 0
-146 386 0
-385 386 0
-385 -146 0
-147 387 0
-386 387 0
-386 -147 0
-148 388 0
-387 388 0
-387 -148 0
-149 389 0
-388 389 0
-388 -149 0
-389 -150 0
-145 187 151 103 0
-145 187 151 139 0
-145 187 103 139 0
-145 151 103 139 0
-146 188 152 104 0
-146 188 152 140 0
-146 188 104 140 0
-146 152 104 140 0
-147 189 153 105 0
-147 189 153 141 0
-147 189 105 141 0
-147 153 105 141 0
-148 190 154 106 0
-148 190 154 142 0
-148 190 106 142 0
-148 154 106 142 0
-149 191 155 107 0
-149 191 155 143 0
-149 191 107 143 0
-149 155 107 143 0
-150 192 156 108 0
-150 192 156 144 0
-150 192 108 144 0
-150 156 108 144 0
-145 -187 -151 -103 0
-145 -187 -151 -139 0
-145 -187 -103 -139 0
-145 -151 -103 -139 0
-146 -188 -152 -104 0
-146 -188 -152 -140 0
-146 -188 -104 -140 0
-146 -152 -104 -140 0
-147 -189 -153 -105 0
-147 -189 -153 -141 0
-147 -189 -105 -141 0
-147 -153 -105 -141 0
-148 -190 -154 -106 0
-148 -190 -154 -142 0
-148 -190 -106 -142 0
-148 -154 -106 -142 0
-149 -191 -155 -107 0
-149 -191 -155 -143 0
-149 -191 -107 -143 0
-149 -155 -107 -143 0
-150 -192 -156 -108 0
-150 -192 -156 -144 0
-150 -192 -108 -144 0
-150 -156 -108 -144 0
151 152 153 154 155 156 0
-151 390 0
-152 391 0
-390 391 0
-390 -152 0
-153 392 0
-391 392 0
-391 -153 0
-154 393 0
-392 393 0
-392 -154 0
-155 394 0
-393 394 0
-393 -155 0
-394 -156 0
-151 193 157 109 0
-151 193 157 145 0
-151 193 109 145 0
-151 157 109 145 0
-152 194 158 110 0
-152 194 158 146 0
-152 194 110 146 0
-152 158 110 146 0
-153 195 159 111 0
-153 195 159 147 0
-153 195 111 147 0
-153 159 111 147 0
-154 196 160 112 0
-154 196 160 148 0
-154 196 112 148 0
-154 160 112 148 0
-155 197 161 113 0
-155 197 161 149 0
-155 197 113 149 0
-155 161 113 149 0
-156 198 162 114 0
-156 198 162 150 0
-156 198 114 150 0
-156 162 114 150 0
-151 -193 -157 -109 0
-151 -193 -157 -145 0
-151 -193 -109 -145 0
-151 -157 -109 -145 0
-152 -194 -158 -110 0
-152 -194 -158 -146 0
-152 -194 -110 -146 0
-152 -158 -110 -146 0
-153 -195 -159 -111 0
-153 -195 -159 -147 0
-153 -195 -111 -147 0
-153 -159 -111 -147 0
-154 -196 -160 -112 0
-154 -196 -160 -148 0
-154 -196 -112 -148 0
-154 -160 -112 -148 0
-155 -197 -161 -113 0
-155 -197 -161 -149 0
-155 -197 -113 -149 0
-155 -161 -113 -149 0
-156 -198 -162 -114 0
-156 -198 -162 -150 0
-156 -198 -114 -150 0
-156 -162 -114 -150 0
157 158 159 160 161 162 0
-157 395 0
-158 396 0
-395 396 0
-395 -158 0
-159 397 0
-396 397 0
-396 -159 0
-160 398 0
-397 398 0
-397 -160 0
-161 399 0
-398 399 0
-398 -161 0
-399 -162 0
-157 199 163 115 0
-157 199 163 151 0
-157 199 115 151 0
-157 163 115 151 0
-158 200 164 116 0
-158 200 164 152 0
-158 200 116 152 0
-158 164 116 152 0
-159 201 165 117 0
-159 201 165 153 0
-159 201 117 153 0
-159 165 117 153 0
-160 202 166 118 0
-160 202 166 154 0
-160 202 118 154 0
-160 166 118 154 0
-161 203 167 119 0
-161 203 167 155 0
-161 203 119 155 0
-161 167 119 155 0
-162 204 168 120 0
-162 204 168 156 0
-162 204 120 156 0
-162 168 120 156 0
-157 -199 -163 -115 0
-157 -199 -163 -151 0
-157 -199 -115 -151 0
-157 -163 -115 -151 0
-158 -200 -164 -116 0
-158 -200 -164 -152 0
-158 -200 -116 -152 0
-158 -164 -116 -152 0
-159 -201 -165 -117 0
-159 -201 -165 -153 0
-159 -201 -117 -153 0
-159 -165 -117 -153 0
-160 -202 -166 -118 0
-160 -202 -166 -154 0
-160 -202 -118 -154 0
-160 -166 -118 -154 0
-161 -203 -167 -119 0
-161 -203 -167 -155 0
-161 -203 -119 -155 0
-161 -167 -119 -155 0
-162 -204 -168 -120 0
-162 -204 -168 -156 0
-162 -204 -120 -156 0
-162 -168 -120 -156 0
163 164 165 166 167 168 0
-163 400 0
-164 401 0
-400 401 0
-400 -164 0
-165 402 0
-401 402 0
-401 -165 0
-166 403 0
-402 403 0
-402 -166 0
-167 404 0
-403 404 0
-403 -167 0
-404 -168 0
-163 205 157 0
-163 205 121 0
-163 157 121 0
-164 206 158 0
-164 206 122 0
-164 158 122 0
-165 207 159 0
-165 207 123 0
-165 159 123 0
-166 208 160 0
-166 208 124 0
-166 160 124 0
-167 209 161 0
-167 209 125 0
-167 161 125 0
-168 210 162 0
-168 210 126 0
-168 162 126 0
-163 -205 -157 -121 0
-164 -206 -158 -122 0
-165 -207 -159 -123 0
-166 -208 -160 -124 0
-167 -209 -161 -125 0
-168 -210 -162 -126 0
169 170 171 172 173 174 0
-169 405 0
-170 406 0
-405 406 0
-405 -170 0
-171 407 0
-406 407 0
-406 -171 0
-172 408 0
-407 408 0
-407 -172 0
-173 409 0
-408 409 0
-408 -173 0
-409 -174 0
-169 211 175 0
-169 211 127 0
-169 175 127 0
-170 212 176 0
-170 212 128 0
-170 176 128 0
-171 213 177 0
-171 213 129 0
-171 177 129 0
-172 214 178 0
-172 214 130 0
-172 178 130 0
-173 215 179 0
-173 215 131 0
-173 179 131 0
-174 216 180 0
-174 216 132 0
-174 180 132 0
-169 -211 -175 -127 0
-170 -212 -176 -128 0
-171 -213 -177 -129 0
-172 -214 -178 -130 0
-173 -215 -179 -131 0
-174 -216 -180 -132 0
-176 0
-177 0
-178 0
-179 0
-180 0
175 0
217 181 133 169 0
-217 -181 0
-217 -133 0
-217 -169 0
-181 -133 0
-181 -169 0
-133 -169 0
-181 0
-183 0
-184 0
-185 0
-186 0
182 0
224 188 140 176 0
-224 -188 0
-224 -140 0
-224 -176 0
-188 -140 0
-188 -176 0
-140 -176 0
-187 0
-188 0
-189 0
-190 0
-191 0
192 0
234 198 150 186 0
-234 -198 0
-234 -150 0
-234 -186 0
-198 -150 0
-198 -186 0
-150 -186 0
193 194 195 196 197 198 0
-193 410 0
-194 411 0
-410 411 0
-410 -194 0
-195 412 0
-411 412 0
-411 -195 0
-196 413 0
-412 413 0
-412 -196 0
-197 414 0
-413 414 0
-413 -197 0
-414 -198 0
-193 235 199 151 0
-193 235 199 187 0
-193 235 151 187 0
-193 199 151 187 0
-194 236 200 152 0
-194 236 200 188 0
-194 236 152 188 0
-194 200 152 188 0
-195 237 201 153 0
-195 237 201 189 0
-195 237 153 189 0
-195 201 153 189 0
-196 238 202 154 0
-196 238 202 190 0
-196 238 154 190 0
-196 202 154 190 0
-197 239 203 155 0
-197 239 203 191 0
-197 239 155 191 0
-197 203 155 191 0
-198 240 204 156 0
-198 240 204 192 0
-198 240 156 192 0
-198 204 156 192 0
-193 -235 -199 -151 0
-193 -235 -199 -187 0
-193 -235 -151 -187 0
-193 -199 -151 -187 0
-194 -236 -200 -152 0
-194 -236 -200 -188 0
-194 -236 -152 -188 0
-194 -200 -152 -188 0
-195 -237 -201 -153 0
-195 -237 -201 -189 0
-195 -237 -153 -189 0
-195 -201 -153 -189 0
-196 -238 -202 -154 0
-196 -238 -202 -190 0
-196 -238 -154 -190 0
-196 -202 -154 -190 0
-197 -239 -203 -155 0
-197 -239 -203 -191 0
-197 -239 -155 -191 0
-197 -203 -155 -191 0
-198 -240 -204 -156 0
-198 -240 -204 -192 0
-198 -240 -156 -192 0
-198 -204 -156 -192 0
199 200 201 202 203 204 0
-199 415 0
-200 416 0
-415 416 0
-415 -200 0
-201 417 0
-416 417 0
-416 -201 0
-202 418 0
-417 418 0
-417 -202 0
-203 419 0
-418 419 0
-418 -203 0
-419 -204 0
-199 241 205 157 0
-199 241 205 193 0
-199 241 157 193 0
-199 205 157 193 0
-200 242 206 158 0
-200 242 206 194 0
-200 242 158 194 0
-200 206 158 194 0
-201 243 207 159 0
-201 243 207 195 0
-201 243 159 195 0
-201 207 159 195 0
-202 244 208 160 0
-202 244 208 196 0
-202 244 160 196 0
-202 208 160 196 0
-203 245 209 161 0
-203 245 209 197 0
-203 245 161 197 0
-203 209 161 197 0
-204 246 210 162 0
-204 246 210 198 0
-204 246 162 198 0
-204 210 162 198 0
-199 -241 -205 -157 0
-199 -241 -205 -193 0
-199 -241 -157 -193 0
-199 -205 -157 -193 0
-200 -242 -206 -158 0
-200 -242 -206 -194 0
-200 -242 -158 -194 0
-200 -206 -158 -194 0
-201 -243 -207 -159 0
-201 -243 -207 -195 0
-201 -243 -159 -195 0
-201 -207 -159 -195 0
-202 -244 -208 -160 0
-202 -244 -208 -196 0
-202 -244 -160 -196 0
-202 -208 -160 -196 0
-203 -245 -209 -161 0
-203 -245 -209 -197 0
-203 -245 -161 -197 0
-203 -209 -161 -197 0
-204 -246 -210 -162 0
-204 -246 -210 -198 0
-204 -246 -162 -198 0
-204 -210 -162 -198 0
205 206 207 208 209 210 0
-205 420 0
-206 421 0
-420 421 0
-420 -206 0
-207 422 0
-421 422 0
-421 -207 0
-208 423 0
-422 423 0
-422 -208 0
-209 424 0
-423 424 0
-423 -209 0
-424 -210 0
-205 247 199 0
-205 247 163 0
-205 199 163 0
-206 248 200 0
-206 248 164 0
-206 200 164 0
-207 249 201 0
-207 249 165 0
-207 201 165 0
-208 250 202 0
-208 250 166 0
-208 202 166 0
-209 251 203 0
-209 251 167 0
-209 203 167 0
-210 252 204 0
-210 252 168 0
-210 204 168 0
-205 -247 -199 -163 0
-206 -248 -200 -164 0
-207 -249 -201 -165 0
-208 -250 -202 -166 0
-209 -251 -203 -167 0
-210 -252 -204 -168 0
211 212 213 214 215 216 0
-211 425 0
-212 426 0
-425 426 0
-425 -212 0
-213 427 0
-426 427 0
-426 -213 0
-214 428 0
-427 428 0
-427 -214 0
-215 429 0
-428 429 0
-428 -215 0
-429 -216 0
-211 253 217 0
-211 253 169 0
-211 217 169 0
-212 254 218 0
-212 254 170 0
-212 218 170 0
-213 255 219 0
-213 255 171 0
-213 219 171 0
-214 256 220 0
-214 256 172 0
-214 220 172 0
-215 257 221 0
-215 257 173 0
-215 221 173 0
-216 258 222 0
-216 258 174 0
-216 222 174 0
-211 -253 -217 -169 0
-212 -254 -218 -170 0
-213 -255 -219 -171 0
-214 -256 -220 -172 0
-215 -257 -221 -173 0
-216 -258 -222 -174 0
217 218 219 220 221 222 0
-217 430 0
-218 431 0
-430 431 0
-430 -218 0
-219 432 0
-431 432 0
-431 -219 0
-220 433 0
-432 433 0
-432 -220 0
-221 434 0
-433 434 0
-433 -221 0
-434 -222 0
-217 259 223 175 0
-217 259 223 211 0
-217 259 175 211 0
-217 223 175 211 0
-218 260 224 176 0
-218 260 224 212 0
-218 260 176 212 0
-218 224 176 212 0
-219 261 225 177 0
-219 261 225 213 0
-219 261 177 213 0
-219 225 177 213 0
-220 262 226 178 0
-220 262 226 214 0
-220 262 178 214 0
-220 226 178 214 0
-221 263 227 179 0
-221 263 227 215 0
-221 263 179 215 0
-221 227 179 215 0
-222 264 228 180 0
-222 264 228 216 0
-222 264 180 216 0
-222 228 180 216 0
-217 -259 -223 -175 0
-217 -259 -223 -211 0
-217 -259 -175 -211 0
-217 -223 -175 -211 0
-218 -260 -224 -176 0
-218 -260 -224 -212 0
-218 -260 -176 -212 0
-218 -224 -176 -212 0
-219 -261 -225 -177 0
-219 -261 -225 -213 0
-219 -261 -177 -213 0
-219 -225 -177 -213 0
-220 -262 -226 -178 0
-220 -262 -226 -214 0
-220 -262 -178 -214 0
-220 -226 -178 -214 0
-221 -263 -227 -179 0
-221 -263 -227 -215 0
-221 -263 -179 -215 0
-221 -227 -179 -215 0
-222 -264 -228 -180 0
-222 -264 -228 -216 0
-222 -264 -180 -216 0
-222 -228 -180 -216 0
223 224 225 226 227 228 0
-223 435 0
-224 436 0
-435 436 0
-435 -224 0
-225 437 0
-436 437 0
-436 -225 0
-226 438 0
-437 438 0
-437 -226 0
-227 439 0
-438 439 0
-438 -227 0
-439 -228 0
-223 265 229 181 0
-223 265 229 217 0
-223 265 181 217 0
-223 229 181 217 0
-224 266 230 182 0
-224 266 230 218 0
-224 266 182 218 0
-224 230 182 218 0
-225 267 231 183 0
-225 267 231 219 0
-225 267 183 219 0
-225 231 183 219 0
-226 268 232 184 0
-226 268 232 220 0
-226 268 184 220 0
-226 232 184 220 0
-227 269 233 185 0
-227 269 233 221 0
-227 269 185 221 0
-227 233 185 221 0
-228 270 234 186 0
-228 270 234 222 0
-228 270 186 222 0
-228 234 186 222 0
-223 -265 -229 -181 0
-223 -265 -229 -217 0
-223 -265 -181 -217 0
-223 -229 -181 -217 0
-224 -266 -230 -182 0
-224 -266 -230 -218 0
-224 -266 -182 -218 0
-224 -230 -182 -218 0
-225 -267 -231 -183 0
-225 -267 -231 -219 0
-225 -267 -183 -219 0
-225 -231 -183 -219 0
-226 -268 -232 -184 0
-226 -268 -232 -220 0
-226 -268 -184 -220 0
-226 -232 -184 -220 0
-227 -269 -233 -185 0
-227 -269 -233 -221 0
-227 -269 -185 -221 0
-227 -233 -185 -221 0
-228 -270 -234 -186 0
-228 -270 -234 -222 0
-228 -270 -186 -222 0
-228 -234 -186 -222 0
229 230 231 232 233 234 0
-229 440 0
-230 441 0
-440 441 0
-440 -230 0
-231 442 0
-441 442 0
-441 -231 0
-232 443 0
-442 443 0
-442 -232 0
-233 444 0
-443 444 0
-443 -233 0
-444 -234 0
-229 271 235 187 0
-229 271 235 223 0
-229 271 187 223 0
-229 235 187 223 0
-230 272 236 188 0
-230 272 236 224 0
-230 272 188 224 0
-230 236 188 224 0
-231 273 237 189 0
-231 273 237 225 0
-231 273 189 225 0
-231 237 189 225 0
-232 274 238 190 0
-232 274 238 226 0
-232 274 190 226 0
-232 238 190 226 0
-233 275 239 191 0
-233 275 239 227 0
-233 275 191 227 0
-233 239 191 227 0
-234 276 240 192 0
-234 276 240 228 0
-234 276 192 228 0
-234 240 192 228 0
-229 -271 -235 -187 0
-229 -271 -235 -223 0
-229 -271 -187 -223 0
-229 -235 -187 -223 0
-230 -272 -236 -188 0
-230 -272 -236 -224 0
-230 -272 -188 -224 0
-230 -236 -188 -224 0
-231 -273 -237 -189 0
-231 -273 -237 -225 0
-231 -273 -189 -225 0
-231 -237 -189 -225 0
-232 -274 -238 -190 0
-232 -274 -238 -226 0
-232 -274 -190 -226 0
-232 -238 -190 -226 0
-233 -275 -239 -191 0
-233 -275 -239 -227 0
-233 -275 -191 -227 0
-233 -239 -191 -227 0
-234 -276 -240 -192 0
-234 -276 -240 -228 0
-234 -276 -192 -228 0
-234 -240 -192 -228 0
235 236 237 238 239 240 0
-235 445 0
-236 446 0
-445 446 0
-445 -236 0
-237 447 0
-446 447 0
-446 -237 0
-238 448 0
-447 448 0
-447 -238 0
-239 449 0
-448 449 0
-448 -239 0
-449 -240 0
-235 277 241 193 0
-235 277 241 229 0
-235 277 193 229 0
-235 241 193 229 0
-236 278 242 194 0
-236 278 242 230 0
-236 278 194 230 0
-236 242 194 230 0
-237 279 243 195 0
-237 279 243 231 0
-237 279 195 231 0
-237 243 195 231 0
-238 280 244 196 0
-238 280 244 232 0
-238 280 196 232 0
-238 244 196 232 0
-239 281 245 197 0
-239 281 245 233 0
-239 281 197 233 0
-239 245 197 233 0
-240 282 246 198 0
-240 282 246 234 0
-240 282 198 234 0
-240 246 198 234 0
-235 -277 -241 -193 0
-235 -277 -241 -229 0
-235 -277 -193 -229 0
-235 -241 -193 -229 0
-236 -278 -242 -194 0
-236 -278 -242 -230 0
-236 -278 -194 -230 0
-236 -242 -194 -230 0
-237 -279 -243 -195 0
-237 -279 -243 -231 0
-237 -279 -195 -231 0
-237 -243 -195 -231 0
-238 -280 -244 -196 0
-238 -280 -244 -232 0
-238 -280 -196 -232 0
-238 -244 -196 -232 0
-239 -281 -245 -197 0
-239 -281 -245 -233 0
-239 -281 -197 -233 0
-239 -245 -197 -233 0
-240 -282 -246 -198 0
-240 -282 -246 -234 0
-240 -282 -198 -234 0
-240 -246 -198 -234 0
-242 0
-243 0
-244 0
-245 0
-246 0
241 0
283 247 199 235 0
-283 -247 0
-283 -199 0
-283 -235 0
-247 -199 0
-247 -235 0
-199 -235 0
247 248 249 250 251 252 0
-247 450 0
-248 451 0
-450 451 0
-450 -248 0
-249 452 0
-451 452 0
-451 -249 0
-250 453 0
-452 453 0
-452 -250 0
-251 454 0
-453 454 0
-453 -251 0
-454 -252 0
-247 289 241 0
-247 289 205 0
-247 241 205 0
-248 290 242 0
-248 290 206 0
-248 242 206 0
-249 291 243 0
-249 291 207 0
-249 243 207 0
-250 292 244 0
-250 292 208 0
-250 244 208 0
-251 293 245 0
-251 293 209 0
-251 245 209 0
-252 294 246 0
-252 294 210 0
-252 246 210 0
-247 -289 -241 -205 0
-248 -290 -242 -206 0
-249 -291 -243 -207 0
-250 -292 -244 -208 0
-251 -293 -245 -209 0
-252 -294 -246 -210 0
253 254 255 256 257 258 0
-253 455 0
-254 456 0
-455 456 0
-455 -254 0
-255 457 0
-456 457 0
-456 -255 0
-256 458 0
-457 458 0
-457 -256 0
-257 459 0
-458 459 0
-458 -257 0
-459 -258 0
-253 211 0
-253 259 0
-254 212 0
-254 260 0
-255 213 0
-255 261 0
-256 214 0
-256 262 0
-257 215 0
-257 263 0
-258 216 0
-258 264 0
259 260 261 262 263 264 0
-259 460 0
-260 461 0
-460 461 0
-460 -260 0
-261 462 0
-461 462 0
-461 -261 0
-262 463 0
-462 463 0
-462 -262 0
-263 464 0
-463 464 0
-463 -263 0
-464 -264 0
-259 217 265 0
-259 217 253 0
-259 265 253 0
-260 218 266 0
-260 218 254 0
-260 266 254 0
-261 219 267 0
-261 219 255 0
-261 267 255 0
-262 220 268 0
-262 220 256 0
-262 268 256 0
-263 221 269 0
-263 221 257 0
-263 269 257 0
-264 222 270 0
-264 222 258 0
-264 270 258 0
-259 -217 -265 -253 0
-260 -218 -266 -254 0
-261 -219 -267 -255 0
-262 -220 -268 -256 0
-263 -221 -269 -257 0
-264 -222 -270 -258 0
-265 0
-266 0
-267 0
-268 0
-270 0
269 0
227 275 263 0
-227 -275 0
-227 -263 0
-275 -263 0
-271 0
-272 0
-273 0
-274 0
-275 0
276 0
234 282 270 0
-234 -282 0
-234 -270 0
-282 -270 0
277 278 279 280 281 282 0
-277 465 0
-278 466 0
-465 466 0
-465 -278 0
-279 467 0
-466 467 0
-466 -279 0
-280 468 0
-467 468 0
-467 -280 0
-281 469 0
-468 469 0
-468 -281 0
-469 -282 0
-277 235 283 0
-277 235 271 0
-277 283 271 0
-278 236 284 0
-278 236 272 0
-278 284 272 0
-279 237 285 0
-279 237 273 0
-279 285 273 0
-280 238 286 0
-280 238 274 0
-280 286 274 0
-281 239 287 0
-281 239 275 0
-281 287 275 0
-282 240 288 0
-282 240 276 0
-282 288 276 0
-277 -235 -283 -271 0
-278 -236 -284 -272 0
-279 -237 -285 -273 0
-280 -238 -286 -274 0
-281 -239 -287 -275 0
-282 -240 -288 -276 0
283 284 285 286 287 288 0
-283 470 0
-284 471 0
-470 471 0
-470 -284 0
-285 472 0
-471 472 0
-471 -285 0
-286 473 0
-472 473 0
-472 -286 0
-287 474 0
-473 474 0
-473 -287 0
-474 -288 0
-283 241 289 0
-283 241 277 0
-283 289 277 0
-284 242 290 0
-284 242 278 0
-284 290 278 0
-285 243 291 0
-285 243 279 0
-285 291 279 0
-286 244 292 0
-286 244 280 0
-286 292 280 0
-287 245 293 0
-287 245 281 0
-287 293 281 0
-288 246 294 0
-288 246 282 0
-288 294 282 0
-283 -241 -289 -277 0
-284 -242 -290 -278 0
-285 -243 -291 -279 0
-286 -244 -292 -280 0
-287 -245 -293 -281 0
-288 -246 -294 -282 0
289 290 291 292 293 294 0
-289 475 0
-290 476 0
-475 476 0
-475 -290 0
-291 477 0
-476 477 0
-476 -291 0
-292 478 0
-477 478 0
-477 -292 0
-293 479 0
-478 479 0
-478 -293 0
-479 -294 0
-289 247 0
-289 283 0
-290 248 0
-290 284 0
-291 249 0
-291 285 0
-292 250 0
-292 286 0
-293 251 0
-293 287 0
-294 252 0
-294 288 0
13 55 139 223 0
19 61 103 145 229 0
67 109 151 193 235 277 0
44 50 56 62 68 74 80 0
86 92 104 110 122 0
128 140 146 152 158 164 0
20 62 104 146 230 0
68 110 152 194 236 278 0
74 158 200 284 0
45 51 57 63 69 75 81 0
87 93 105 111 123 0
15 57 141 225 0
21 63 105 147 231 0
69 111 153 195 237 279 0
22 64 106 148 232 0
70 112 154 196 238 280 0
47 53 59 65 71 77 83 0
89 95 107 113 125 0
131 143 149 155 161 167 0
173 197 203 209 0
215 221 227 233 239 251 0
23 65 107 149 233 0
216 222 228 234 240 252 0